
--- Job hammer_CVAR.gms Start 04/17/19 16:07:23 26.1.0 rf2b37b9 WEX-WEI x86 64bit/MS Windows
GAMS 26.1.0   Copyright (C) 1987-2019 GAMS Development. All rights reserved
Licensee: Course License NUS Business School             S190121:0416AO-GEN
          Analytics and Operations                                  DC14729
          License for teaching and research at degree granting institutions
          License Admin: Fernando Oliveira, bizfmdo@nus.edu.sg             
--- Starting compilation
--- hammer_CVAR.gms(143) 3 Mb
--- Starting execution: elapsed 0:00:00.080
--- hammer_CVAR.gms(28) 4 Mb
--- Generating LP model hammer
--- hammer_CVAR.gms(67) 4 Mb
---   502 rows  404 columns  1,403 non-zeroes
--- Executing CPLEX: elapsed 0:00:00.110

IBM ILOG CPLEX   26.1.0 rf2b37b9 Released Feb 02, 2019 WEI x86 64bit/MS Window
--- GAMS/Cplex licensed for continuous and discrete problems.
Cplex 12.8.0.0

Reading data...
Starting Cplex...
Space for names approximately 0.02 Mb
Use option 'names no' to turn use of names off
CPXPARAM_Advance                                 0
CPXPARAM_Simplex_Limits_Iterations               1000000
CPXPARAM_TimeLimit                               1000000
CPXPARAM_Threads                                 1
CPXPARAM_Parallel                                1
CPXPARAM_Tune_TimeLimit                          200000
Tried aggregator 1 time.
LP Presolve eliminated 103 rows and 3 columns.
Aggregator did 101 substitutions.
Reduced LP has 298 rows, 300 columns, and 894 nonzeros.
Presolve time = 0.00 sec. (0.39 ticks)
Initializing dual steep norms . . .

Iteration log . . .
Iteration:     1   Scaled dual infeas =             8.000000
Iteration:     4   Dual objective     =        159412.517531
Iteration:    65   Dual objective     =          1429.618068
Perturbation started.
Iteration:   106   Dual objective     =          1429.618068
Removing perturbation.
LP status(1): optimal
Cplex Time: 0.08sec (det. 1.60 ticks)

Optimal solution found.
Objective :        1429.618068

--- Restarting execution
--- hammer_CVAR.gms(67) 2 Mb
--- Reading solution for model hammer
--- Executing after solve: elapsed 0:00:00.857
--- hammer_CVAR.gms(106) 3 Mb
--- Putfile results C:\Users\Administrator\Desktop\MSBA\DSC5211C QUANTITATIVE RISK MANAGEMENT\week11\hammer_results.txt
*** Status: Normal completion
--- Job hammer_CVAR.gms Stop 04/17/19 16:07:24 elapsed 0:00:00.881
